90 362550
31 74 64 38 66 15 46 57 71 86 21 5 58 65 29 61 68 40 59 2 3 1 77 37 72 35 52 36 42 24 8 13 10 22 17 51 32 23 26 43 27 85 54 45 39 63 79 50 83 18 7 9 30 87 56 16 12 6 20 89 60 81 53 73 76 47 90 44 41 80 88 25 62 67 28 4 78 11 19 70 69 49 33 14 82 75 84 48 55 34 
